p cnf    855        709
c 1 bool_I2C_SUBSYS
c 2 bool_IRQ_SUBSYS
c 3 master_hex_RAM_SIZE
c 4 master_hex_RAM_BASE
c 5 bool_ERROR
c 6 bool_DEBUG
c 7 bool_SENSOR_APP
c 8 bool_TEST_TIMER
c 9 bool_TEST_THREAD
c 10 bool_TEST_QUEUE
c 11 bool_TEST_SYSCALL
c 12 bool_TEST_SEM
c 13 bool_TEST_MUTEX
c 14 bool_TEST_MTD
c 15 bool_MALLOC
c 16 bool_STATIC_APPS
c 17 master_hex_KERNEL_HEAP_START
c 18 bit_0_hex_KERNEL_HEAP_START
c 19 bit_1_hex_KERNEL_HEAP_START
c 20 bit_2_hex_KERNEL_HEAP_START
c 21 bit_3_hex_KERNEL_HEAP_START
c 22 bit_4_hex_KERNEL_HEAP_START
c 23 bit_5_hex_KERNEL_HEAP_START
c 24 bit_6_hex_KERNEL_HEAP_START
c 25 bit_7_hex_KERNEL_HEAP_START
c 26 bit_8_hex_KERNEL_HEAP_START
c 27 bit_9_hex_KERNEL_HEAP_START
c 28 bit_10_hex_KERNEL_HEAP_START
c 29 bit_11_hex_KERNEL_HEAP_START
c 30 bit_12_hex_KERNEL_HEAP_START
c 31 bit_13_hex_KERNEL_HEAP_START
c 32 bit_14_hex_KERNEL_HEAP_START
c 33 bit_15_hex_KERNEL_HEAP_START
c 34 bit_16_hex_KERNEL_HEAP_START
c 35 bit_17_hex_KERNEL_HEAP_START
c 36 bit_18_hex_KERNEL_HEAP_START
c 37 bit_19_hex_KERNEL_HEAP_START
c 38 bit_20_hex_KERNEL_HEAP_START
c 39 bit_21_hex_KERNEL_HEAP_START
c 40 bit_22_hex_KERNEL_HEAP_START
c 41 bit_23_hex_KERNEL_HEAP_START
c 42 bit_24_hex_KERNEL_HEAP_START
c 43 bit_25_hex_KERNEL_HEAP_START
c 44 bit_26_hex_KERNEL_HEAP_START
c 45 bit_27_hex_KERNEL_HEAP_START
c 46 bit_28_hex_KERNEL_HEAP_START
c 47 bit_29_hex_KERNEL_HEAP_START
c 48 bit_30_hex_KERNEL_HEAP_START
c 49 bit_31_hex_KERNEL_HEAP_START
c 50 bit_32_hex_KERNEL_HEAP_START
c 51 bit_33_hex_KERNEL_HEAP_START
c 52 bit_34_hex_KERNEL_HEAP_START
c 53 bit_35_hex_KERNEL_HEAP_START
c 54 bit_36_hex_KERNEL_HEAP_START
c 55 bit_37_hex_KERNEL_HEAP_START
c 56 bit_38_hex_KERNEL_HEAP_START
c 57 bit_39_hex_KERNEL_HEAP_START
c 58 bit_40_hex_KERNEL_HEAP_START
c 59 bit_41_hex_KERNEL_HEAP_START
c 60 bit_42_hex_KERNEL_HEAP_START
c 61 bit_43_hex_KERNEL_HEAP_START
c 62 bit_44_hex_KERNEL_HEAP_START
c 63 bit_45_hex_KERNEL_HEAP_START
c 64 bit_46_hex_KERNEL_HEAP_START
c 65 bit_47_hex_KERNEL_HEAP_START
c 66 bit_48_hex_KERNEL_HEAP_START
c 67 bit_49_hex_KERNEL_HEAP_START
c 68 bit_50_hex_KERNEL_HEAP_START
c 69 bit_51_hex_KERNEL_HEAP_START
c 70 bit_52_hex_KERNEL_HEAP_START
c 71 bit_53_hex_KERNEL_HEAP_START
c 72 bit_54_hex_KERNEL_HEAP_START
c 73 bit_55_hex_KERNEL_HEAP_START
c 74 bit_56_hex_KERNEL_HEAP_START
c 75 bit_57_hex_KERNEL_HEAP_START
c 76 bit_58_hex_KERNEL_HEAP_START
c 77 bit_59_hex_KERNEL_HEAP_START
c 78 bit_60_hex_KERNEL_HEAP_START
c 79 bit_61_hex_KERNEL_HEAP_START
c 80 bit_62_hex_KERNEL_HEAP_START
c 81 bit_63_hex_KERNEL_HEAP_START
c 82 bool_USARTDEV
c 83 bool_TIMER_SUBSYS
c 84 master_hex_TEXT_BASE
c 85 bool_ELF_LOADER
c 86 bool_RFLAT_LOADER
c 87 master_hex_THREAD_STACK_SIZE
c 88 bool_QUEUE
c 89 bool_UNWIND
c 90 bool_TRACE
c 91 bool_SCHEDULE_RR_PRIO
c 92 bool_SCHEDULE_PRIORITY
c 93 bool_SCHEDULE_ROUND_ROBIN
c 94 master_hex_TEXT_SIZE
c 95 master_hex_THREAD_STACK_START
c 96 master_hex_STACK_SIZE
c 97 master_hex_KERNEL_HEAP_END
c 98 bit_0_hex_KERNEL_HEAP_END
c 99 bit_1_hex_KERNEL_HEAP_END
c 100 bit_2_hex_KERNEL_HEAP_END
c 101 bit_3_hex_KERNEL_HEAP_END
c 102 bit_4_hex_KERNEL_HEAP_END
c 103 bit_5_hex_KERNEL_HEAP_END
c 104 bit_6_hex_KERNEL_HEAP_END
c 105 bit_7_hex_KERNEL_HEAP_END
c 106 bit_8_hex_KERNEL_HEAP_END
c 107 bit_9_hex_KERNEL_HEAP_END
c 108 bit_10_hex_KERNEL_HEAP_END
c 109 bit_11_hex_KERNEL_HEAP_END
c 110 bit_12_hex_KERNEL_HEAP_END
c 111 bit_13_hex_KERNEL_HEAP_END
c 112 bit_14_hex_KERNEL_HEAP_END
c 113 bit_15_hex_KERNEL_HEAP_END
c 114 bit_16_hex_KERNEL_HEAP_END
c 115 bit_17_hex_KERNEL_HEAP_END
c 116 bit_18_hex_KERNEL_HEAP_END
c 117 bit_19_hex_KERNEL_HEAP_END
c 118 bit_20_hex_KERNEL_HEAP_END
c 119 bit_21_hex_KERNEL_HEAP_END
c 120 bit_22_hex_KERNEL_HEAP_END
c 121 bit_23_hex_KERNEL_HEAP_END
c 122 bit_24_hex_KERNEL_HEAP_END
c 123 bit_25_hex_KERNEL_HEAP_END
c 124 bit_26_hex_KERNEL_HEAP_END
c 125 bit_27_hex_KERNEL_HEAP_END
c 126 bit_28_hex_KERNEL_HEAP_END
c 127 bit_29_hex_KERNEL_HEAP_END
c 128 bit_30_hex_KERNEL_HEAP_END
c 129 bit_31_hex_KERNEL_HEAP_END
c 130 bit_32_hex_KERNEL_HEAP_END
c 131 bit_33_hex_KERNEL_HEAP_END
c 132 bit_34_hex_KERNEL_HEAP_END
c 133 bit_35_hex_KERNEL_HEAP_END
c 134 bit_36_hex_KERNEL_HEAP_END
c 135 bit_37_hex_KERNEL_HEAP_END
c 136 bit_38_hex_KERNEL_HEAP_END
c 137 bit_39_hex_KERNEL_HEAP_END
c 138 bit_40_hex_KERNEL_HEAP_END
c 139 bit_41_hex_KERNEL_HEAP_END
c 140 bit_42_hex_KERNEL_HEAP_END
c 141 bit_43_hex_KERNEL_HEAP_END
c 142 bit_44_hex_KERNEL_HEAP_END
c 143 bit_45_hex_KERNEL_HEAP_END
c 144 bit_46_hex_KERNEL_HEAP_END
c 145 bit_47_hex_KERNEL_HEAP_END
c 146 bit_48_hex_KERNEL_HEAP_END
c 147 bit_49_hex_KERNEL_HEAP_END
c 148 bit_50_hex_KERNEL_HEAP_END
c 149 bit_51_hex_KERNEL_HEAP_END
c 150 bit_52_hex_KERNEL_HEAP_END
c 151 bit_53_hex_KERNEL_HEAP_END
c 152 bit_54_hex_KERNEL_HEAP_END
c 153 bit_55_hex_KERNEL_HEAP_END
c 154 bit_56_hex_KERNEL_HEAP_END
c 155 bit_57_hex_KERNEL_HEAP_END
c 156 bit_58_hex_KERNEL_HEAP_END
c 157 bit_59_hex_KERNEL_HEAP_END
c 158 bit_60_hex_KERNEL_HEAP_END
c 159 bit_61_hex_KERNEL_HEAP_END
c 160 bit_62_hex_KERNEL_HEAP_END
c 161 bit_63_hex_KERNEL_HEAP_END
c 162 bool_LIBFDT
c 163 bool_HR_TIMER
c 164 bool_SEMIHOSTING
c 165 bool_SEMAPHORE
c 166 bool_MACH_STM32
c 167 bool_VERBOSE
c 168 bool_TICKLESS
c 169 bool_CPU_ARM_CORTEX_M3
c 170 bool_CPU_ARM_CORTEX_M7
c 171 bool_CPU_ARM_CORTEX_M4
c 172 master_int_NUM_IRQS
c 173 sign_int_NUM_IRQS
c 174 bit_5_int_NUM_IRQS
c 175 bit_53_int_NUM_IRQS
c 176 bit_9_int_NUM_IRQS
c 177 bit_28_int_NUM_IRQS
c 178 bit_40_int_NUM_IRQS
c 179 bit_16_int_NUM_IRQS
c 180 bit_55_int_NUM_IRQS
c 181 bit_42_int_NUM_IRQS
c 182 bit_45_int_NUM_IRQS
c 183 bit_62_int_NUM_IRQS
c 184 bit_0_int_NUM_IRQS
c 185 bit_29_int_NUM_IRQS
c 186 bit_25_int_NUM_IRQS
c 187 bit_58_int_NUM_IRQS
c 188 bit_2_int_NUM_IRQS
c 189 bit_35_int_NUM_IRQS
c 190 bit_18_int_NUM_IRQS
c 191 bit_41_int_NUM_IRQS
c 192 bit_59_int_NUM_IRQS
c 193 bit_47_int_NUM_IRQS
c 194 bit_56_int_NUM_IRQS
c 195 bit_60_int_NUM_IRQS
c 196 bit_48_int_NUM_IRQS
c 197 bit_37_int_NUM_IRQS
c 198 bit_57_int_NUM_IRQS
c 199 bit_52_int_NUM_IRQS
c 200 bit_7_int_NUM_IRQS
c 201 bit_15_int_NUM_IRQS
c 202 bit_43_int_NUM_IRQS
c 203 bit_46_int_NUM_IRQS
c 204 bit_49_int_NUM_IRQS
c 205 bit_34_int_NUM_IRQS
c 206 bit_51_int_NUM_IRQS
c 207 bit_36_int_NUM_IRQS
c 208 bit_38_int_NUM_IRQS
c 209 bit_31_int_NUM_IRQS
c 210 bit_14_int_NUM_IRQS
c 211 bit_39_int_NUM_IRQS
c 212 bit_44_int_NUM_IRQS
c 213 bit_26_int_NUM_IRQS
c 214 bit_50_int_NUM_IRQS
c 215 bit_33_int_NUM_IRQS
c 216 bit_30_int_NUM_IRQS
c 217 bit_4_int_NUM_IRQS
c 218 bit_54_int_NUM_IRQS
c 219 bit_27_int_NUM_IRQS
c 220 bit_1_int_NUM_IRQS
c 221 bit_24_int_NUM_IRQS
c 222 bit_23_int_NUM_IRQS
c 223 bit_22_int_NUM_IRQS
c 224 bit_19_int_NUM_IRQS
c 225 bit_3_int_NUM_IRQS
c 226 bit_21_int_NUM_IRQS
c 227 bit_20_int_NUM_IRQS
c 228 bit_10_int_NUM_IRQS
c 229 bit_17_int_NUM_IRQS
c 230 bit_13_int_NUM_IRQS
c 231 bit_6_int_NUM_IRQS
c 232 bit_8_int_NUM_IRQS
c 233 bit_11_int_NUM_IRQS
c 234 bit_61_int_NUM_IRQS
c 235 bit_32_int_NUM_IRQS
c 236 bit_12_int_NUM_IRQS
c 237 bool_CPU_ARMV7M
c 238 env_string_ARCH_alias_ARCH_eq_arm
c 239 env_string_ARCH_alias_ARCH_eq_ARCH_otherval
c 240 bool_LCD_SUBSYS
c 241 bool_USB_SUBSYS
c 242 master_int_MAX_THREADS
c 243 sign_int_MAX_THREADS
c 244 bit_0_int_MAX_THREADS
c 245 bit_1_int_MAX_THREADS
c 246 bit_2_int_MAX_THREADS
c 247 bit_3_int_MAX_THREADS
c 248 bit_4_int_MAX_THREADS
c 249 bit_5_int_MAX_THREADS
c 250 bit_6_int_MAX_THREADS
c 251 bit_7_int_MAX_THREADS
c 252 bit_8_int_MAX_THREADS
c 253 bit_9_int_MAX_THREADS
c 254 bit_10_int_MAX_THREADS
c 255 bit_11_int_MAX_THREADS
c 256 bit_12_int_MAX_THREADS
c 257 bit_13_int_MAX_THREADS
c 258 bit_14_int_MAX_THREADS
c 259 bit_15_int_MAX_THREADS
c 260 bit_16_int_MAX_THREADS
c 261 bit_17_int_MAX_THREADS
c 262 bit_18_int_MAX_THREADS
c 263 bit_19_int_MAX_THREADS
c 264 bit_20_int_MAX_THREADS
c 265 bit_21_int_MAX_THREADS
c 266 bit_22_int_MAX_THREADS
c 267 bit_23_int_MAX_THREADS
c 268 bit_24_int_MAX_THREADS
c 269 bit_25_int_MAX_THREADS
c 270 bit_26_int_MAX_THREADS
c 271 bit_27_int_MAX_THREADS
c 272 bit_28_int_MAX_THREADS
c 273 bit_29_int_MAX_THREADS
c 274 bit_30_int_MAX_THREADS
c 275 bit_31_int_MAX_THREADS
c 276 bit_32_int_MAX_THREADS
c 277 bit_33_int_MAX_THREADS
c 278 bit_34_int_MAX_THREADS
c 279 bit_35_int_MAX_THREADS
c 280 bit_36_int_MAX_THREADS
c 281 bit_37_int_MAX_THREADS
c 282 bit_38_int_MAX_THREADS
c 283 bit_39_int_MAX_THREADS
c 284 bit_40_int_MAX_THREADS
c 285 bit_41_int_MAX_THREADS
c 286 bit_42_int_MAX_THREADS
c 287 bit_43_int_MAX_THREADS
c 288 bit_44_int_MAX_THREADS
c 289 bit_45_int_MAX_THREADS
c 290 bit_46_int_MAX_THREADS
c 291 bit_47_int_MAX_THREADS
c 292 bit_48_int_MAX_THREADS
c 293 bit_49_int_MAX_THREADS
c 294 bit_50_int_MAX_THREADS
c 295 bit_51_int_MAX_THREADS
c 296 bit_52_int_MAX_THREADS
c 297 bit_53_int_MAX_THREADS
c 298 bit_54_int_MAX_THREADS
c 299 bit_55_int_MAX_THREADS
c 300 bit_56_int_MAX_THREADS
c 301 bit_57_int_MAX_THREADS
c 302 bit_58_int_MAX_THREADS
c 303 bit_59_int_MAX_THREADS
c 304 bit_60_int_MAX_THREADS
c 305 bit_61_int_MAX_THREADS
c 306 bit_62_int_MAX_THREADS
c 307 bool_SPI_SUBSYS
c 308 bool_BIG_ENDIAN
c 309 bool_LITTLE_ENDIAN
c 310 bool_USER
c 311 bool_CPU_ARMV7
c 312 bool_MUTEX
c 313 master_int_THREAD_QUANTUM
c 314 sign_int_THREAD_QUANTUM
c 315 bit_0_int_THREAD_QUANTUM
c 316 bit_1_int_THREAD_QUANTUM
c 317 bit_2_int_THREAD_QUANTUM
c 318 bit_3_int_THREAD_QUANTUM
c 319 bit_4_int_THREAD_QUANTUM
c 320 bit_5_int_THREAD_QUANTUM
c 321 bit_6_int_THREAD_QUANTUM
c 322 bit_7_int_THREAD_QUANTUM
c 323 bit_8_int_THREAD_QUANTUM
c 324 bit_9_int_THREAD_QUANTUM
c 325 bit_10_int_THREAD_QUANTUM
c 326 bit_11_int_THREAD_QUANTUM
c 327 bit_12_int_THREAD_QUANTUM
c 328 bit_13_int_THREAD_QUANTUM
c 329 bit_14_int_THREAD_QUANTUM
c 330 bit_15_int_THREAD_QUANTUM
c 331 bit_16_int_THREAD_QUANTUM
c 332 bit_17_int_THREAD_QUANTUM
c 333 bit_18_int_THREAD_QUANTUM
c 334 bit_19_int_THREAD_QUANTUM
c 335 bit_20_int_THREAD_QUANTUM
c 336 bit_21_int_THREAD_QUANTUM
c 337 bit_22_int_THREAD_QUANTUM
c 338 bit_23_int_THREAD_QUANTUM
c 339 bit_24_int_THREAD_QUANTUM
c 340 bit_25_int_THREAD_QUANTUM
c 341 bit_26_int_THREAD_QUANTUM
c 342 bit_27_int_THREAD_QUANTUM
c 343 bit_28_int_THREAD_QUANTUM
c 344 bit_29_int_THREAD_QUANTUM
c 345 bit_30_int_THREAD_QUANTUM
c 346 bit_31_int_THREAD_QUANTUM
c 347 bit_32_int_THREAD_QUANTUM
c 348 bit_33_int_THREAD_QUANTUM
c 349 bit_34_int_THREAD_QUANTUM
c 350 bit_35_int_THREAD_QUANTUM
c 351 bit_36_int_THREAD_QUANTUM
c 352 bit_37_int_THREAD_QUANTUM
c 353 bit_38_int_THREAD_QUANTUM
c 354 bit_39_int_THREAD_QUANTUM
c 355 bit_40_int_THREAD_QUANTUM
c 356 bit_41_int_THREAD_QUANTUM
c 357 bit_42_int_THREAD_QUANTUM
c 358 bit_43_int_THREAD_QUANTUM
c 359 bit_44_int_THREAD_QUANTUM
c 360 bit_45_int_THREAD_QUANTUM
c 361 bit_46_int_THREAD_QUANTUM
c 362 bit_47_int_THREAD_QUANTUM
c 363 bit_48_int_THREAD_QUANTUM
c 364 bit_49_int_THREAD_QUANTUM
c 365 bit_50_int_THREAD_QUANTUM
c 366 bit_51_int_THREAD_QUANTUM
c 367 bit_52_int_THREAD_QUANTUM
c 368 bit_53_int_THREAD_QUANTUM
c 369 bit_54_int_THREAD_QUANTUM
c 370 bit_55_int_THREAD_QUANTUM
c 371 bit_56_int_THREAD_QUANTUM
c 372 bit_57_int_THREAD_QUANTUM
c 373 bit_58_int_THREAD_QUANTUM
c 374 bit_59_int_THREAD_QUANTUM
c 375 bit_60_int_THREAD_QUANTUM
c 376 bit_61_int_THREAD_QUANTUM
c 377 bit_62_int_THREAD_QUANTUM
c 378 bool_ILI9341
c 379 bool_CPU_ARM
c 380 master_int_DMA_REQUEST_LINES
c 381 sign_int_DMA_REQUEST_LINES
c 382 bit_5_int_DMA_REQUEST_LINES
c 383 bit_6_int_DMA_REQUEST_LINES
c 384 bit_27_int_DMA_REQUEST_LINES
c 385 bit_46_int_DMA_REQUEST_LINES
c 386 bit_62_int_DMA_REQUEST_LINES
c 387 bit_56_int_DMA_REQUEST_LINES
c 388 bit_28_int_DMA_REQUEST_LINES
c 389 bit_14_int_DMA_REQUEST_LINES
c 390 bit_32_int_DMA_REQUEST_LINES
c 391 bit_49_int_DMA_REQUEST_LINES
c 392 bit_0_int_DMA_REQUEST_LINES
c 393 bit_60_int_DMA_REQUEST_LINES
c 394 bit_52_int_DMA_REQUEST_LINES
c 395 bit_4_int_DMA_REQUEST_LINES
c 396 bit_41_int_DMA_REQUEST_LINES
c 397 bit_16_int_DMA_REQUEST_LINES
c 398 bit_40_int_DMA_REQUEST_LINES
c 399 bit_38_int_DMA_REQUEST_LINES
c 400 bit_36_int_DMA_REQUEST_LINES
c 401 bit_43_int_DMA_REQUEST_LINES
c 402 bit_1_int_DMA_REQUEST_LINES
c 403 bit_15_int_DMA_REQUEST_LINES
c 404 bit_61_int_DMA_REQUEST_LINES
c 405 bit_31_int_DMA_REQUEST_LINES
c 406 bit_58_int_DMA_REQUEST_LINES
c 407 bit_8_int_DMA_REQUEST_LINES
c 408 bit_45_int_DMA_REQUEST_LINES
c 409 bit_24_int_DMA_REQUEST_LINES
c 410 bit_37_int_DMA_REQUEST_LINES
c 411 bit_39_int_DMA_REQUEST_LINES
c 412 bit_17_int_DMA_REQUEST_LINES
c 413 bit_23_int_DMA_REQUEST_LINES
c 414 bit_2_int_DMA_REQUEST_LINES
c 415 bit_42_int_DMA_REQUEST_LINES
c 416 bit_34_int_DMA_REQUEST_LINES
c 417 bit_55_int_DMA_REQUEST_LINES
c 418 bit_18_int_DMA_REQUEST_LINES
c 419 bit_57_int_DMA_REQUEST_LINES
c 420 bit_54_int_DMA_REQUEST_LINES
c 421 bit_35_int_DMA_REQUEST_LINES
c 422 bit_50_int_DMA_REQUEST_LINES
c 423 bit_48_int_DMA_REQUEST_LINES
c 424 bit_53_int_DMA_REQUEST_LINES
c 425 bit_47_int_DMA_REQUEST_LINES
c 426 bit_51_int_DMA_REQUEST_LINES
c 427 bit_33_int_DMA_REQUEST_LINES
c 428 bit_30_int_DMA_REQUEST_LINES
c 429 bit_59_int_DMA_REQUEST_LINES
c 430 bit_13_int_DMA_REQUEST_LINES
c 431 bit_29_int_DMA_REQUEST_LINES
c 432 bit_7_int_DMA_REQUEST_LINES
c 433 bit_26_int_DMA_REQUEST_LINES
c 434 bit_44_int_DMA_REQUEST_LINES
c 435 bit_25_int_DMA_REQUEST_LINES
c 436 bit_10_int_DMA_REQUEST_LINES
c 437 bit_22_int_DMA_REQUEST_LINES
c 438 bit_21_int_DMA_REQUEST_LINES
c 439 bit_20_int_DMA_REQUEST_LINES
c 440 bit_9_int_DMA_REQUEST_LINES
c 441 bit_3_int_DMA_REQUEST_LINES
c 442 bit_19_int_DMA_REQUEST_LINES
c 443 bit_12_int_DMA_REQUEST_LINES
c 444 bit_11_int_DMA_REQUEST_LINES
c 445 master_int_GPIO_PORT_NUM
c 446 sign_int_GPIO_PORT_NUM
c 447 bit_7_int_GPIO_PORT_NUM
c 448 bit_12_int_GPIO_PORT_NUM
c 449 bit_21_int_GPIO_PORT_NUM
c 450 bit_48_int_GPIO_PORT_NUM
c 451 bit_49_int_GPIO_PORT_NUM
c 452 bit_52_int_GPIO_PORT_NUM
c 453 bit_54_int_GPIO_PORT_NUM
c 454 bit_60_int_GPIO_PORT_NUM
c 455 bit_34_int_GPIO_PORT_NUM
c 456 bit_28_int_GPIO_PORT_NUM
c 457 bit_59_int_GPIO_PORT_NUM
c 458 bit_50_int_GPIO_PORT_NUM
c 459 bit_39_int_GPIO_PORT_NUM
c 460 bit_8_int_GPIO_PORT_NUM
c 461 bit_9_int_GPIO_PORT_NUM
c 462 bit_46_int_GPIO_PORT_NUM
c 463 bit_40_int_GPIO_PORT_NUM
c 464 bit_61_int_GPIO_PORT_NUM
c 465 bit_57_int_GPIO_PORT_NUM
c 466 bit_0_int_GPIO_PORT_NUM
c 467 bit_2_int_GPIO_PORT_NUM
c 468 bit_35_int_GPIO_PORT_NUM
c 469 bit_37_int_GPIO_PORT_NUM
c 470 bit_27_int_GPIO_PORT_NUM
c 471 bit_15_int_GPIO_PORT_NUM
c 472 bit_3_int_GPIO_PORT_NUM
c 473 bit_43_int_GPIO_PORT_NUM
c 474 bit_45_int_GPIO_PORT_NUM
c 475 bit_22_int_GPIO_PORT_NUM
c 476 bit_62_int_GPIO_PORT_NUM
c 477 bit_42_int_GPIO_PORT_NUM
c 478 bit_58_int_GPIO_PORT_NUM
c 479 bit_47_int_GPIO_PORT_NUM
c 480 bit_55_int_GPIO_PORT_NUM
c 481 bit_31_int_GPIO_PORT_NUM
c 482 bit_1_int_GPIO_PORT_NUM
c 483 bit_36_int_GPIO_PORT_NUM
c 484 bit_51_int_GPIO_PORT_NUM
c 485 bit_33_int_GPIO_PORT_NUM
c 486 bit_29_int_GPIO_PORT_NUM
c 487 bit_32_int_GPIO_PORT_NUM
c 488 bit_4_int_GPIO_PORT_NUM
c 489 bit_41_int_GPIO_PORT_NUM
c 490 bit_56_int_GPIO_PORT_NUM
c 491 bit_30_int_GPIO_PORT_NUM
c 492 bit_6_int_GPIO_PORT_NUM
c 493 bit_38_int_GPIO_PORT_NUM
c 494 bit_5_int_GPIO_PORT_NUM
c 495 bit_25_int_GPIO_PORT_NUM
c 496 bit_24_int_GPIO_PORT_NUM
c 497 bit_23_int_GPIO_PORT_NUM
c 498 bit_20_int_GPIO_PORT_NUM
c 499 bit_53_int_GPIO_PORT_NUM
c 500 bit_19_int_GPIO_PORT_NUM
c 501 bit_11_int_GPIO_PORT_NUM
c 502 bit_18_int_GPIO_PORT_NUM
c 503 bit_44_int_GPIO_PORT_NUM
c 504 bit_10_int_GPIO_PORT_NUM
c 505 bit_17_int_GPIO_PORT_NUM
c 506 bit_16_int_GPIO_PORT_NUM
c 507 bit_26_int_GPIO_PORT_NUM
c 508 bit_14_int_GPIO_PORT_NUM
c 509 bit_13_int_GPIO_PORT_NUM
c 510 bool_CUSTOM_MALLOC
c 511 bool_TLSF
c 512 bool_SPIDEV
c 513 master_hex_USER_HEAP_END
c 514 bit_0_hex_USER_HEAP_END
c 515 bit_1_hex_USER_HEAP_END
c 516 bit_2_hex_USER_HEAP_END
c 517 bit_3_hex_USER_HEAP_END
c 518 bit_4_hex_USER_HEAP_END
c 519 bit_5_hex_USER_HEAP_END
c 520 bit_6_hex_USER_HEAP_END
c 521 bit_7_hex_USER_HEAP_END
c 522 bit_8_hex_USER_HEAP_END
c 523 bit_9_hex_USER_HEAP_END
c 524 bit_10_hex_USER_HEAP_END
c 525 bit_11_hex_USER_HEAP_END
c 526 bit_12_hex_USER_HEAP_END
c 527 bit_13_hex_USER_HEAP_END
c 528 bit_14_hex_USER_HEAP_END
c 529 bit_15_hex_USER_HEAP_END
c 530 bit_16_hex_USER_HEAP_END
c 531 bit_17_hex_USER_HEAP_END
c 532 bit_18_hex_USER_HEAP_END
c 533 bit_19_hex_USER_HEAP_END
c 534 bit_20_hex_USER_HEAP_END
c 535 bit_21_hex_USER_HEAP_END
c 536 bit_22_hex_USER_HEAP_END
c 537 bit_23_hex_USER_HEAP_END
c 538 bit_24_hex_USER_HEAP_END
c 539 bit_25_hex_USER_HEAP_END
c 540 bit_26_hex_USER_HEAP_END
c 541 bit_27_hex_USER_HEAP_END
c 542 bit_28_hex_USER_HEAP_END
c 543 bit_29_hex_USER_HEAP_END
c 544 bit_30_hex_USER_HEAP_END
c 545 bit_31_hex_USER_HEAP_END
c 546 bit_32_hex_USER_HEAP_END
c 547 bit_33_hex_USER_HEAP_END
c 548 bit_34_hex_USER_HEAP_END
c 549 bit_35_hex_USER_HEAP_END
c 550 bit_36_hex_USER_HEAP_END
c 551 bit_37_hex_USER_HEAP_END
c 552 bit_38_hex_USER_HEAP_END
c 553 bit_39_hex_USER_HEAP_END
c 554 bit_40_hex_USER_HEAP_END
c 555 bit_41_hex_USER_HEAP_END
c 556 bit_42_hex_USER_HEAP_END
c 557 bit_43_hex_USER_HEAP_END
c 558 bit_44_hex_USER_HEAP_END
c 559 bit_45_hex_USER_HEAP_END
c 560 bit_46_hex_USER_HEAP_END
c 561 bit_47_hex_USER_HEAP_END
c 562 bit_48_hex_USER_HEAP_END
c 563 bit_49_hex_USER_HEAP_END
c 564 bit_50_hex_USER_HEAP_END
c 565 bit_51_hex_USER_HEAP_END
c 566 bit_52_hex_USER_HEAP_END
c 567 bit_53_hex_USER_HEAP_END
c 568 bit_54_hex_USER_HEAP_END
c 569 bit_55_hex_USER_HEAP_END
c 570 bit_56_hex_USER_HEAP_END
c 571 bit_57_hex_USER_HEAP_END
c 572 bit_58_hex_USER_HEAP_END
c 573 bit_59_hex_USER_HEAP_END
c 574 bit_60_hex_USER_HEAP_END
c 575 bit_61_hex_USER_HEAP_END
c 576 bit_62_hex_USER_HEAP_END
c 577 bit_63_hex_USER_HEAP_END
c 578 bool_CPU_ARM_THUMB
c 579 bool_AT45DB
c 580 bool_BME280
c 581 master_int_GPIO_PER_PORT
c 582 sign_int_GPIO_PER_PORT
c 583 bit_4_int_GPIO_PER_PORT
c 584 bit_28_int_GPIO_PER_PORT
c 585 bit_6_int_GPIO_PER_PORT
c 586 bit_7_int_GPIO_PER_PORT
c 587 bit_59_int_GPIO_PER_PORT
c 588 bit_16_int_GPIO_PER_PORT
c 589 bit_36_int_GPIO_PER_PORT
c 590 bit_51_int_GPIO_PER_PORT
c 591 bit_0_int_GPIO_PER_PORT
c 592 bit_22_int_GPIO_PER_PORT
c 593 bit_39_int_GPIO_PER_PORT
c 594 bit_49_int_GPIO_PER_PORT
c 595 bit_10_int_GPIO_PER_PORT
c 596 bit_31_int_GPIO_PER_PORT
c 597 bit_33_int_GPIO_PER_PORT
c 598 bit_54_int_GPIO_PER_PORT
c 599 bit_47_int_GPIO_PER_PORT
c 600 bit_44_int_GPIO_PER_PORT
c 601 bit_55_int_GPIO_PER_PORT
c 602 bit_3_int_GPIO_PER_PORT
c 603 bit_9_int_GPIO_PER_PORT
c 604 bit_35_int_GPIO_PER_PORT
c 605 bit_1_int_GPIO_PER_PORT
c 606 bit_37_int_GPIO_PER_PORT
c 607 bit_2_int_GPIO_PER_PORT
c 608 bit_34_int_GPIO_PER_PORT
c 609 bit_20_int_GPIO_PER_PORT
c 610 bit_11_int_GPIO_PER_PORT
c 611 bit_38_int_GPIO_PER_PORT
c 612 bit_32_int_GPIO_PER_PORT
c 613 bit_42_int_GPIO_PER_PORT
c 614 bit_58_int_GPIO_PER_PORT
c 615 bit_61_int_GPIO_PER_PORT
c 616 bit_57_int_GPIO_PER_PORT
c 617 bit_48_int_GPIO_PER_PORT
c 618 bit_53_int_GPIO_PER_PORT
c 619 bit_45_int_GPIO_PER_PORT
c 620 bit_46_int_GPIO_PER_PORT
c 621 bit_60_int_GPIO_PER_PORT
c 622 bit_43_int_GPIO_PER_PORT
c 623 bit_52_int_GPIO_PER_PORT
c 624 bit_50_int_GPIO_PER_PORT
c 625 bit_13_int_GPIO_PER_PORT
c 626 bit_21_int_GPIO_PER_PORT
c 627 bit_12_int_GPIO_PER_PORT
c 628 bit_41_int_GPIO_PER_PORT
c 629 bit_62_int_GPIO_PER_PORT
c 630 bit_30_int_GPIO_PER_PORT
c 631 bit_29_int_GPIO_PER_PORT
c 632 bit_27_int_GPIO_PER_PORT
c 633 bit_25_int_GPIO_PER_PORT
c 634 bit_5_int_GPIO_PER_PORT
c 635 bit_24_int_GPIO_PER_PORT
c 636 bit_56_int_GPIO_PER_PORT
c 637 bit_23_int_GPIO_PER_PORT
c 638 bit_19_int_GPIO_PER_PORT
c 639 bit_18_int_GPIO_PER_PORT
c 640 bit_17_int_GPIO_PER_PORT
c 641 bit_15_int_GPIO_PER_PORT
c 642 bit_14_int_GPIO_PER_PORT
c 643 bit_26_int_GPIO_PER_PORT
c 644 bit_40_int_GPIO_PER_PORT
c 645 bit_8_int_GPIO_PER_PORT
c 646 bool_PRIORITY_INHERITANCE
c 647 bool_STM32F401
c 648 bool_STM32L443
c 649 bool_STM32F746
c 650 bool_STM32F429
c 651 bool_STM32F407
c 652 master_hex_USER_HEAP_START
c 653 bit_0_hex_USER_HEAP_START
c 654 bit_1_hex_USER_HEAP_START
c 655 bit_2_hex_USER_HEAP_START
c 656 bit_3_hex_USER_HEAP_START
c 657 bit_4_hex_USER_HEAP_START
c 658 bit_5_hex_USER_HEAP_START
c 659 bit_6_hex_USER_HEAP_START
c 660 bit_7_hex_USER_HEAP_START
c 661 bit_8_hex_USER_HEAP_START
c 662 bit_9_hex_USER_HEAP_START
c 663 bit_10_hex_USER_HEAP_START
c 664 bit_11_hex_USER_HEAP_START
c 665 bit_12_hex_USER_HEAP_START
c 666 bit_13_hex_USER_HEAP_START
c 667 bit_14_hex_USER_HEAP_START
c 668 bit_15_hex_USER_HEAP_START
c 669 bit_16_hex_USER_HEAP_START
c 670 bit_17_hex_USER_HEAP_START
c 671 bit_18_hex_USER_HEAP_START
c 672 bit_19_hex_USER_HEAP_START
c 673 bit_20_hex_USER_HEAP_START
c 674 bit_21_hex_USER_HEAP_START
c 675 bit_22_hex_USER_HEAP_START
c 676 bit_23_hex_USER_HEAP_START
c 677 bit_24_hex_USER_HEAP_START
c 678 bit_25_hex_USER_HEAP_START
c 679 bit_26_hex_USER_HEAP_START
c 680 bit_27_hex_USER_HEAP_START
c 681 bit_28_hex_USER_HEAP_START
c 682 bit_29_hex_USER_HEAP_START
c 683 bit_30_hex_USER_HEAP_START
c 684 bit_31_hex_USER_HEAP_START
c 685 bit_32_hex_USER_HEAP_START
c 686 bit_33_hex_USER_HEAP_START
c 687 bit_34_hex_USER_HEAP_START
c 688 bit_35_hex_USER_HEAP_START
c 689 bit_36_hex_USER_HEAP_START
c 690 bit_37_hex_USER_HEAP_START
c 691 bit_38_hex_USER_HEAP_START
c 692 bit_39_hex_USER_HEAP_START
c 693 bit_40_hex_USER_HEAP_START
c 694 bit_41_hex_USER_HEAP_START
c 695 bit_42_hex_USER_HEAP_START
c 696 bit_43_hex_USER_HEAP_START
c 697 bit_44_hex_USER_HEAP_START
c 698 bit_45_hex_USER_HEAP_START
c 699 bit_46_hex_USER_HEAP_START
c 700 bit_47_hex_USER_HEAP_START
c 701 bit_48_hex_USER_HEAP_START
c 702 bit_49_hex_USER_HEAP_START
c 703 bit_50_hex_USER_HEAP_START
c 704 bit_51_hex_USER_HEAP_START
c 705 bit_52_hex_USER_HEAP_START
c 706 bit_53_hex_USER_HEAP_START
c 707 bit_54_hex_USER_HEAP_START
c 708 bit_55_hex_USER_HEAP_START
c 709 bit_56_hex_USER_HEAP_START
c 710 bit_57_hex_USER_HEAP_START
c 711 bit_58_hex_USER_HEAP_START
c 712 bit_59_hex_USER_HEAP_START
c 713 bit_60_hex_USER_HEAP_START
c 714 bit_61_hex_USER_HEAP_START
c 715 bit_62_hex_USER_HEAP_START
c 716 bit_63_hex_USER_HEAP_START
c 717 master_hex_ILI9341_FRAME_BUFFER
c 718 bit_0_hex_ILI9341_FRAME_BUFFER
c 719 bit_1_hex_ILI9341_FRAME_BUFFER
c 720 bit_2_hex_ILI9341_FRAME_BUFFER
c 721 bit_3_hex_ILI9341_FRAME_BUFFER
c 722 bit_4_hex_ILI9341_FRAME_BUFFER
c 723 bit_5_hex_ILI9341_FRAME_BUFFER
c 724 bit_6_hex_ILI9341_FRAME_BUFFER
c 725 bit_7_hex_ILI9341_FRAME_BUFFER
c 726 bit_8_hex_ILI9341_FRAME_BUFFER
c 727 bit_9_hex_ILI9341_FRAME_BUFFER
c 728 bit_10_hex_ILI9341_FRAME_BUFFER
c 729 bit_11_hex_ILI9341_FRAME_BUFFER
c 730 bit_12_hex_ILI9341_FRAME_BUFFER
c 731 bit_13_hex_ILI9341_FRAME_BUFFER
c 732 bit_14_hex_ILI9341_FRAME_BUFFER
c 733 bit_15_hex_ILI9341_FRAME_BUFFER
c 734 bit_16_hex_ILI9341_FRAME_BUFFER
c 735 bit_17_hex_ILI9341_FRAME_BUFFER
c 736 bit_18_hex_ILI9341_FRAME_BUFFER
c 737 bit_19_hex_ILI9341_FRAME_BUFFER
c 738 bit_20_hex_ILI9341_FRAME_BUFFER
c 739 bit_21_hex_ILI9341_FRAME_BUFFER
c 740 bit_22_hex_ILI9341_FRAME_BUFFER
c 741 bit_23_hex_ILI9341_FRAME_BUFFER
c 742 bit_24_hex_ILI9341_FRAME_BUFFER
c 743 bit_25_hex_ILI9341_FRAME_BUFFER
c 744 bit_26_hex_ILI9341_FRAME_BUFFER
c 745 bit_27_hex_ILI9341_FRAME_BUFFER
c 746 bit_28_hex_ILI9341_FRAME_BUFFER
c 747 bit_29_hex_ILI9341_FRAME_BUFFER
c 748 bit_30_hex_ILI9341_FRAME_BUFFER
c 749 bit_31_hex_ILI9341_FRAME_BUFFER
c 750 bit_32_hex_ILI9341_FRAME_BUFFER
c 751 bit_33_hex_ILI9341_FRAME_BUFFER
c 752 bit_34_hex_ILI9341_FRAME_BUFFER
c 753 bit_35_hex_ILI9341_FRAME_BUFFER
c 754 bit_36_hex_ILI9341_FRAME_BUFFER
c 755 bit_37_hex_ILI9341_FRAME_BUFFER
c 756 bit_38_hex_ILI9341_FRAME_BUFFER
c 757 bit_39_hex_ILI9341_FRAME_BUFFER
c 758 bit_40_hex_ILI9341_FRAME_BUFFER
c 759 bit_41_hex_ILI9341_FRAME_BUFFER
c 760 bit_42_hex_ILI9341_FRAME_BUFFER
c 761 bit_43_hex_ILI9341_FRAME_BUFFER
c 762 bit_44_hex_ILI9341_FRAME_BUFFER
c 763 bit_45_hex_ILI9341_FRAME_BUFFER
c 764 bit_46_hex_ILI9341_FRAME_BUFFER
c 765 bit_47_hex_ILI9341_FRAME_BUFFER
c 766 bit_48_hex_ILI9341_FRAME_BUFFER
c 767 bit_49_hex_ILI9341_FRAME_BUFFER
c 768 bit_50_hex_ILI9341_FRAME_BUFFER
c 769 bit_51_hex_ILI9341_FRAME_BUFFER
c 770 bit_52_hex_ILI9341_FRAME_BUFFER
c 771 bit_53_hex_ILI9341_FRAME_BUFFER
c 772 bit_54_hex_ILI9341_FRAME_BUFFER
c 773 bit_55_hex_ILI9341_FRAME_BUFFER
c 774 bit_56_hex_ILI9341_FRAME_BUFFER
c 775 bit_57_hex_ILI9341_FRAME_BUFFER
c 776 bit_58_hex_ILI9341_FRAME_BUFFER
c 777 bit_59_hex_ILI9341_FRAME_BUFFER
c 778 bit_60_hex_ILI9341_FRAME_BUFFER
c 779 bit_61_hex_ILI9341_FRAME_BUFFER
c 780 bit_62_hex_ILI9341_FRAME_BUFFER
c 781 bit_63_hex_ILI9341_FRAME_BUFFER
c 782 bool_BW_DELAY
c 783 master_int_EXTI_LINES
c 784 bit_5_int_EXTI_LINES
c 785 bit_16_int_EXTI_LINES
c 786 bit_6_int_EXTI_LINES
c 787 bit_59_int_EXTI_LINES
c 788 bit_49_int_EXTI_LINES
c 789 bit_12_int_EXTI_LINES
c 790 bit_34_int_EXTI_LINES
c 791 bit_48_int_EXTI_LINES
c 792 bit_40_int_EXTI_LINES
c 793 bit_52_int_EXTI_LINES
c 794 bit_42_int_EXTI_LINES
c 795 bit_62_int_EXTI_LINES
c 796 bit_26_int_EXTI_LINES
c 797 bit_15_int_EXTI_LINES
c 798 bit_10_int_EXTI_LINES
c 799 bit_45_int_EXTI_LINES
c 800 bit_0_int_EXTI_LINES
c 801 bit_1_int_EXTI_LINES
c 802 bit_61_int_EXTI_LINES
c 803 bit_3_int_EXTI_LINES
c 804 bit_28_int_EXTI_LINES
c 805 bit_39_int_EXTI_LINES
c 806 bit_47_int_EXTI_LINES
c 807 bit_17_int_EXTI_LINES
c 808 bit_36_int_EXTI_LINES
c 809 sign_int_EXTI_LINES
c 810 bit_55_int_EXTI_LINES
c 811 bit_23_int_EXTI_LINES
c 812 bit_7_int_EXTI_LINES
c 813 bit_35_int_EXTI_LINES
c 814 bit_50_int_EXTI_LINES
c 815 bit_44_int_EXTI_LINES
c 816 bit_30_int_EXTI_LINES
c 817 bit_8_int_EXTI_LINES
c 818 bit_38_int_EXTI_LINES
c 819 bit_41_int_EXTI_LINES
c 820 bit_25_int_EXTI_LINES
c 821 bit_2_int_EXTI_LINES
c 822 bit_51_int_EXTI_LINES
c 823 bit_56_int_EXTI_LINES
c 824 bit_46_int_EXTI_LINES
c 825 bit_57_int_EXTI_LINES
c 826 bit_54_int_EXTI_LINES
c 827 bit_33_int_EXTI_LINES
c 828 bit_53_int_EXTI_LINES
c 829 bit_60_int_EXTI_LINES
c 830 bit_32_int_EXTI_LINES
c 831 bit_4_int_EXTI_LINES
c 832 bit_31_int_EXTI_LINES
c 833 bit_27_int_EXTI_LINES
c 834 bit_9_int_EXTI_LINES
c 835 bit_29_int_EXTI_LINES
c 836 bit_24_int_EXTI_LINES
c 837 bit_22_int_EXTI_LINES
c 838 bit_21_int_EXTI_LINES
c 839 bit_37_int_EXTI_LINES
c 840 bit_58_int_EXTI_LINES
c 841 bit_20_int_EXTI_LINES
c 842 bit_19_int_EXTI_LINES
c 843 bit_18_int_EXTI_LINES
c 844 bit_11_int_EXTI_LINES
c 845 bit_14_int_EXTI_LINES
c 846 bit_13_int_EXTI_LINES
c 847 bit_43_int_EXTI_LINES
c 848 bool_USART_DEBUG
c 849 bool_SEMIHOSTING_DEBUG
c 850 bool_SWO_DEBUG
c 851 bool_STM32F7XX
c 852 bool_SEMIHOSTING_DEBUG_BUFFERED
c 853 bool_STM32F4XX
c 854 bool_STM32L4XX
c 855 bool_USB_STACK
3 0
4 0
7 14 13 12 11 10 9 8 0
-7 -14 0
-7 -13 0
-7 -10 0
-7 -12 0
-7 -11 0
-7 -9 0
-7 -8 0
-14 -13 0
-14 -10 0
-14 -12 0
-14 -11 0
-14 -9 0
-14 -8 0
-13 -10 0
-13 -12 0
-13 -11 0
-13 -9 0
-13 -8 0
-10 -12 0
-10 -11 0
-10 -9 0
-10 -8 0
-12 -11 0
-12 -9 0
-12 -8 0
-11 -9 0
-11 -8 0
-9 -8 0
17 -15 0
15 -17 0
15 -18 0
15 -19 0
15 -20 0
15 -21 0
15 -22 0
15 -23 0
15 -24 0
15 -25 0
15 -26 0
15 -27 0
15 -28 0
15 -29 0
15 -30 0
15 -31 0
15 -32 0
15 -33 0
15 -34 0
15 -35 0
15 -36 0
15 -37 0
15 -38 0
15 -39 0
15 -40 0
15 -41 0
15 -42 0
15 -43 0
15 -44 0
15 -45 0
15 -46 0
15 -47 0
15 -48 0
15 -49 0
15 -50 0
15 -51 0
15 -52 0
15 -53 0
15 -54 0
15 -55 0
15 -56 0
15 -57 0
15 -58 0
15 -59 0
15 -60 0
15 -61 0
15 -62 0
15 -63 0
15 -64 0
15 -65 0
15 -66 0
15 -67 0
15 -68 0
15 -69 0
15 -70 0
15 -71 0
15 -72 0
15 -73 0
15 -74 0
15 -75 0
15 -76 0
15 -77 0
15 -78 0
15 -79 0
15 -80 0
15 -81 0
84 0
16 85 86 0
-16 -85 0
-16 -86 0
-85 -86 0
87 0
15 -88 0
91 93 92 0
-91 -93 0
-91 -92 0
-93 -92 0
94 0
95 0
96 0
97 -15 0
15 -97 0
15 -98 0
15 -99 0
15 -100 0
15 -101 0
15 -102 0
15 -103 0
15 -104 0
15 -105 0
15 -106 0
15 -107 0
15 -108 0
15 -109 0
15 -110 0
15 -111 0
15 -112 0
15 -113 0
15 -114 0
15 -115 0
15 -116 0
15 -117 0
15 -118 0
15 -119 0
15 -120 0
15 -121 0
15 -122 0
15 -123 0
15 -124 0
15 -125 0
15 -126 0
15 -127 0
15 -128 0
15 -129 0
15 -130 0
15 -131 0
15 -132 0
15 -133 0
15 -134 0
15 -135 0
15 -136 0
15 -137 0
15 -138 0
15 -139 0
15 -140 0
15 -141 0
15 -142 0
15 -143 0
15 -144 0
15 -145 0
15 -146 0
15 -147 0
15 -148 0
15 -149 0
15 -150 0
15 -151 0
15 -152 0
15 -153 0
15 -154 0
15 -155 0
15 -156 0
15 -157 0
15 -158 0
15 -159 0
15 -160 0
15 -161 0
166 0
169 171 170 0
-169 -171 0
-169 -170 0
-171 -170 0
172 0
184 188 189 190 202 201 191 192 193 198 199 200 204 183 197 181 180 182 187 196 195 194 179 203 178 177 185 186 205 207 206 208 209 210 211 212 213 214 215 216 217 218 219 220 221 222 223 225 224 226 227 228 229 230 232 231 236 234 235 233 176 175 174 -173 0
237 0
238 0
-239 0
15 242 0
-15 -242 0
-15 -243 0
-15 -244 0
-15 -245 0
-15 -246 0
-15 -247 0
-15 -248 0
-15 -249 0
-15 -250 0
-15 -251 0
-15 -252 0
-15 -253 0
-15 -254 0
-15 -255 0
-15 -256 0
-15 -257 0
-15 -258 0
-15 -259 0
-15 -260 0
-15 -261 0
-15 -262 0
-15 -263 0
-15 -264 0
-15 -265 0
-15 -266 0
-15 -267 0
-15 -268 0
-15 -269 0
-15 -270 0
-15 -271 0
-15 -272 0
-15 -273 0
-15 -274 0
-15 -275 0
-15 -276 0
-15 -277 0
-15 -278 0
-15 -279 0
-15 -280 0
-15 -281 0
-15 -282 0
-15 -283 0
-15 -284 0
-15 -285 0
-15 -286 0
-15 -287 0
-15 -288 0
-15 -289 0
-15 -290 0
-15 -291 0
-15 -292 0
-15 -293 0
-15 -294 0
-15 -295 0
-15 -296 0
-15 -297 0
-15 -298 0
-15 -299 0
-15 -300 0
-15 -301 0
-15 -302 0
-15 -303 0
-15 -304 0
-15 -305 0
-15 -306 0
245 246 247 278 252 257 293 302 289 253 295 306 291 292 259 285 301 279 270 297 244 305 296 256 299 273 286 287 249 304 288 282 267 281 283 266 280 298 277 276 275 284 268 274 272 271 258 254 269 255 265 260 290 303 264 300 263 262 261 251 250 294 248 -243 0
308 309 0
-308 -309 0
-16 -310 0
311 -237 0
237 -311 0
313 -91 0
313 -93 0
91 93 -313 0
91 93 -314 0
91 93 -315 0
91 93 -316 0
91 93 -317 0
91 93 -318 0
91 93 -319 0
91 93 -320 0
91 93 -321 0
91 93 -322 0
91 93 -323 0
91 93 -324 0
91 93 -325 0
91 93 -326 0
91 93 -327 0
91 93 -328 0
91 93 -329 0
91 93 -330 0
91 93 -331 0
91 93 -332 0
91 93 -333 0
91 93 -334 0
91 93 -335 0
91 93 -336 0
91 93 -337 0
91 93 -338 0
91 93 -339 0
91 93 -340 0
91 93 -341 0
91 93 -342 0
91 93 -343 0
91 93 -344 0
91 93 -345 0
91 93 -346 0
91 93 -347 0
91 93 -348 0
91 93 -349 0
91 93 -350 0
91 93 -351 0
91 93 -352 0
91 93 -353 0
91 93 -354 0
91 93 -355 0
91 93 -356 0
91 93 -357 0
91 93 -358 0
91 93 -359 0
91 93 -360 0
91 93 -361 0
91 93 -362 0
91 93 -363 0
91 93 -364 0
91 93 -365 0
91 93 -366 0
91 93 -367 0
91 93 -368 0
91 93 -369 0
91 93 -370 0
91 93 -371 0
91 93 -372 0
91 93 -373 0
91 93 -374 0
91 93 -375 0
91 93 -376 0
91 93 -377 0
315 317 318 350 330 352 353 355 346 367 335 356 357 364 327 351 363 377 369 365 375 361 374 354 325 338 358 316 329 360 321 373 372 370 340 368 371 366 349 362 347 344 348 334 345 343 342 333 341 359 339 336 337 332 331 328 376 326 324 323 322 320 319 -314 0
307 -378 0
240 -378 0
379 0
380 0
402 414 389 410 409 399 411 412 413 404 405 415 400 401 393 396 398 397 395 392 391 390 407 408 406 388 387 386 394 416 417 418 419 420 421 422 403 423 425 424 426 427 428 429 430 431 432 433 434 435 436 437 438 439 441 442 443 444 440 385 384 383 382 -381 0
445 0
466 467 472 468 469 470 473 451 474 477 476 475 479 478 462 461 465 459 458 457 456 471 455 454 452 453 464 463 460 483 484 485 486 487 482 480 481 489 490 488 491 492 493 494 495 496 497 498 499 500 501 502 503 504 505 506 507 508 509 450 449 448 447 -446 0
510 511 -15 0
15 -510 0
15 -511 0
-510 -511 0
307 -512 0
513 -15 -310 0
15 -513 0
15 -514 0
15 -515 0
15 -516 0
15 -517 0
15 -518 0
15 -519 0
15 -520 0
15 -521 0
15 -522 0
15 -523 0
15 -524 0
15 -525 0
15 -526 0
15 -527 0
15 -528 0
15 -529 0
15 -530 0
15 -531 0
15 -532 0
15 -533 0
15 -534 0
15 -535 0
15 -536 0
15 -537 0
15 -538 0
15 -539 0
15 -540 0
15 -541 0
15 -542 0
15 -543 0
15 -544 0
15 -545 0
15 -546 0
15 -547 0
15 -548 0
15 -549 0
15 -550 0
15 -551 0
15 -552 0
15 -553 0
15 -554 0
15 -555 0
15 -556 0
15 -557 0
15 -558 0
15 -559 0
15 -560 0
15 -561 0
15 -562 0
15 -563 0
15 -564 0
15 -565 0
15 -566 0
15 -567 0
15 -568 0
15 -569 0
15 -570 0
15 -571 0
15 -572 0
15 -573 0
15 -574 0
15 -575 0
15 -576 0
15 -577 0
310 -513 0
310 -514 0
310 -515 0
310 -516 0
310 -517 0
310 -518 0
310 -519 0
310 -520 0
310 -521 0
310 -522 0
310 -523 0
310 -524 0
310 -525 0
310 -526 0
310 -527 0
310 -528 0
310 -529 0
310 -530 0
310 -531 0
310 -532 0
310 -533 0
310 -534 0
310 -535 0
310 -536 0
310 -537 0
310 -538 0
310 -539 0
310 -540 0
310 -541 0
310 -542 0
310 -543 0
310 -544 0
310 -545 0
310 -546 0
310 -547 0
310 -548 0
310 -549 0
310 -550 0
310 -551 0
310 -552 0
310 -553 0
310 -554 0
310 -555 0
310 -556 0
310 -557 0
310 -558 0
310 -559 0
310 -560 0
310 -561 0
310 -562 0
310 -563 0
310 -564 0
310 -565 0
310 -566 0
310 -567 0
310 -568 0
310 -569 0
310 -570 0
310 -571 0
310 -572 0
310 -573 0
310 -574 0
310 -575 0
310 -576 0
310 -577 0
578 -237 0
237 -578 0
307 -579 0
307 -580 0
581 0
591 605 607 604 603 606 608 609 613 611 612 610 614 600 599 595 602 601 594 593 592 590 587 589 588 598 596 597 615 616 617 618 619 620 621 622 623 624 625 626 627 628 629 630 631 632 633 634 635 636 637 638 639 640 641 642 644 643 645 586 585 584 583 -582 0
312 -646 0
647 651 650 649 648 -166 0
166 -647 0
166 -651 0
166 -650 0
166 -649 0
166 -648 0
-647 -651 0
-647 -650 0
-647 -649 0
-647 -648 0
-651 -650 0
-651 -649 0
-651 -648 0
-650 -649 0
-650 -648 0
-649 -648 0
652 -15 -310 0
15 -652 0
15 -653 0
15 -654 0
15 -655 0
15 -656 0
15 -657 0
15 -658 0
15 -659 0
15 -660 0
15 -661 0
15 -662 0
15 -663 0
15 -664 0
15 -665 0
15 -666 0
15 -667 0
15 -668 0
15 -669 0
15 -670 0
15 -671 0
15 -672 0
15 -673 0
15 -674 0
15 -675 0
15 -676 0
15 -677 0
15 -678 0
15 -679 0
15 -680 0
15 -681 0
15 -682 0
15 -683 0
15 -684 0
15 -685 0
15 -686 0
15 -687 0
15 -688 0
15 -689 0
15 -690 0
15 -691 0
15 -692 0
15 -693 0
15 -694 0
15 -695 0
15 -696 0
15 -697 0
15 -698 0
15 -699 0
15 -700 0
15 -701 0
15 -702 0
15 -703 0
15 -704 0
15 -705 0
15 -706 0
15 -707 0
15 -708 0
15 -709 0
15 -710 0
15 -711 0
15 -712 0
15 -713 0
15 -714 0
15 -715 0
15 -716 0
310 -652 0
310 -653 0
310 -654 0
310 -655 0
310 -656 0
310 -657 0
310 -658 0
310 -659 0
310 -660 0
310 -661 0
310 -662 0
310 -663 0
310 -664 0
310 -665 0
310 -666 0
310 -667 0
310 -668 0
310 -669 0
310 -670 0
310 -671 0
310 -672 0
310 -673 0
310 -674 0
310 -675 0
310 -676 0
310 -677 0
310 -678 0
310 -679 0
310 -680 0
310 -681 0
310 -682 0
310 -683 0
310 -684 0
310 -685 0
310 -686 0
310 -687 0
310 -688 0
310 -689 0
310 -690 0
310 -691 0
310 -692 0
310 -693 0
310 -694 0
310 -695 0
310 -696 0
310 -697 0
310 -698 0
310 -699 0
310 -700 0
310 -701 0
310 -702 0
310 -703 0
310 -704 0
310 -705 0
310 -706 0
310 -707 0
310 -708 0
310 -709 0
310 -710 0
310 -711 0
310 -712 0
310 -713 0
310 -714 0
310 -715 0
310 -716 0
717 -378 0
378 -717 0
378 -718 0
378 -719 0
378 -720 0
378 -721 0
378 -722 0
378 -723 0
378 -724 0
378 -725 0
378 -726 0
378 -727 0
378 -728 0
378 -729 0
378 -730 0
378 -731 0
378 -732 0
378 -733 0
378 -734 0
378 -735 0
378 -736 0
378 -737 0
378 -738 0
378 -739 0
378 -740 0
378 -741 0
378 -742 0
378 -743 0
378 -744 0
378 -745 0
378 -746 0
378 -747 0
378 -748 0
378 -749 0
378 -750 0
378 -751 0
378 -752 0
378 -753 0
378 -754 0
378 -755 0
378 -756 0
378 -757 0
378 -758 0
378 -759 0
378 -760 0
378 -761 0
378 -762 0
378 -763 0
378 -764 0
378 -765 0
378 -766 0
378 -767 0
378 -768 0
378 -769 0
378 -770 0
378 -771 0
378 -772 0
378 -773 0
378 -774 0
378 -775 0
378 -776 0
378 -777 0
378 -778 0
378 -779 0
378 -780 0
378 -781 0
-163 -782 0
783 0
800 801 803 808 805 806 807 810 811 818 816 817 799 797 798 813 812 788 795 794 796 790 789 791 792 793 815 814 787 802 819 820 821 822 823 824 825 826 827 828 829 830 831 832 833 834 835 804 836 837 838 839 840 841 842 843 844 845 847 846 786 785 784 -809 0
848 850 849 0
164 -849 0
-848 -850 0
-848 -849 0
-850 -849 0
851 -649 0
649 -851 0
849 -852 0
853 -647 0
853 -651 0
853 -650 0
647 651 650 -853 0
854 -648 0
648 -854 0
853 -855 0
241 -855 0
